p cnf 432 1968
1 2 3 4 5 6 0
-1 109 0
-2 109 0
-1 -2 110 0
-3 111 0
-4 111 0
-3 -4 112 0
-5 113 0
-6 113 0
-5 -6 114 0
-111 115 0
-113 115 0
-111 -113 116 0
-112 117 0
-114 117 0
-112 -114 118 0
-116 119 0
-117 119 0
-116 -117 120 0
-109 121 0
-115 121 0
-109 -115 122 0
-110 123 0
-119 123 0
-110 -119 124 0
-122 125 0
-123 125 0
-122 -123 126 0
-125 0
37 38 39 40 41 42 0
-37 127 0
-38 127 0
-37 -38 128 0
-39 129 0
-40 129 0
-39 -40 130 0
-41 131 0
-42 131 0
-41 -42 132 0
-129 133 0
-131 133 0
-129 -131 134 0
-130 135 0
-132 135 0
-130 -132 136 0
-134 137 0
-135 137 0
-134 -135 138 0
-127 139 0
-133 139 0
-127 -133 140 0
-128 141 0
-137 141 0
-128 -137 142 0
-140 143 0
-141 143 0
-140 -141 144 0
-143 0
73 74 75 76 77 78 0
-73 145 0
-74 145 0
-73 -74 146 0
-75 147 0
-76 147 0
-75 -76 148 0
-77 149 0
-78 149 0
-77 -78 150 0
-147 151 0
-149 151 0
-147 -149 152 0
-148 153 0
-150 153 0
-148 -150 154 0
-152 155 0
-153 155 0
-152 -153 156 0
-145 157 0
-151 157 0
-145 -151 158 0
-146 159 0
-155 159 0
-146 -155 160 0
-158 161 0
-159 161 0
-158 -159 162 0
-161 0
7 8 9 10 11 12 0
-7 163 0
-8 163 0
-7 -8 164 0
-9 165 0
-10 165 0
-9 -10 166 0
-11 167 0
-12 167 0
-11 -12 168 0
-165 169 0
-167 169 0
-165 -167 170 0
-166 171 0
-168 171 0
-166 -168 172 0
-170 173 0
-171 173 0
-170 -171 174 0
-163 175 0
-169 175 0
-163 -169 176 0
-164 177 0
-173 177 0
-164 -173 178 0
-176 179 0
-177 179 0
-176 -177 180 0
-179 0
43 44 45 46 47 48 0
-43 181 0
-44 181 0
-43 -44 182 0
-45 183 0
-46 183 0
-45 -46 184 0
-47 185 0
-48 185 0
-47 -48 186 0
-183 187 0
-185 187 0
-183 -185 188 0
-184 189 0
-186 189 0
-184 -186 190 0
-188 191 0
-189 191 0
-188 -189 192 0
-181 193 0
-187 193 0
-181 -187 194 0
-182 195 0
-191 195 0
-182 -191 196 0
-194 197 0
-195 197 0
-194 -195 198 0
-197 0
79 80 81 82 83 84 0
-79 199 0
-80 199 0
-79 -80 200 0
-81 201 0
-82 201 0
-81 -82 202 0
-83 203 0
-84 203 0
-83 -84 204 0
-201 205 0
-203 205 0
-201 -203 206 0
-202 207 0
-204 207 0
-202 -204 208 0
-206 209 0
-207 209 0
-206 -207 210 0
-199 211 0
-205 211 0
-199 -205 212 0
-200 213 0
-209 213 0
-200 -209 214 0
-212 215 0
-213 215 0
-212 -213 216 0
-215 0
13 14 15 16 17 18 0
-13 217 0
-14 217 0
-13 -14 218 0
-15 219 0
-16 219 0
-15 -16 220 0
-17 221 0
-18 221 0
-17 -18 222 0
-219 223 0
-221 223 0
-219 -221 224 0
-220 225 0
-222 225 0
-220 -222 226 0
-224 227 0
-225 227 0
-224 -225 228 0
-217 229 0
-223 229 0
-217 -223 230 0
-218 231 0
-227 231 0
-218 -227 232 0
-230 233 0
-231 233 0
-230 -231 234 0
-233 0
49 50 51 52 53 54 0
-49 235 0
-50 235 0
-49 -50 236 0
-51 237 0
-52 237 0
-51 -52 238 0
-53 239 0
-54 239 0
-53 -54 240 0
-237 241 0
-239 241 0
-237 -239 242 0
-238 243 0
-240 243 0
-238 -240 244 0
-242 245 0
-243 245 0
-242 -243 246 0
-235 247 0
-241 247 0
-235 -241 248 0
-236 249 0
-245 249 0
-236 -245 250 0
-248 251 0
-249 251 0
-248 -249 252 0
-251 0
85 86 87 88 89 90 0
-85 253 0
-86 253 0
-85 -86 254 0
-87 255 0
-88 255 0
-87 -88 256 0
-89 257 0
-90 257 0
-89 -90 258 0
-255 259 0
-257 259 0
-255 -257 260 0
-256 261 0
-258 261 0
-256 -258 262 0
-260 263 0
-261 263 0
-260 -261 264 0
-253 265 0
-259 265 0
-253 -259 266 0
-254 267 0
-263 267 0
-254 -263 268 0
-266 269 0
-267 269 0
-266 -267 270 0
-269 0
19 20 21 22 23 24 0
-19 271 0
-20 271 0
-19 -20 272 0
-21 273 0
-22 273 0
-21 -22 274 0
-23 275 0
-24 275 0
-23 -24 276 0
-273 277 0
-275 277 0
-273 -275 278 0
-274 279 0
-276 279 0
-274 -276 280 0
-278 281 0
-279 281 0
-278 -279 282 0
-271 283 0
-277 283 0
-271 -277 284 0
-272 285 0
-281 285 0
-272 -281 286 0
-284 287 0
-285 287 0
-284 -285 288 0
-287 0
55 56 57 58 59 60 0
-55 289 0
-56 289 0
-55 -56 290 0
-57 291 0
-58 291 0
-57 -58 292 0
-59 293 0
-60 293 0
-59 -60 294 0
-291 295 0
-293 295 0
-291 -293 296 0
-292 297 0
-294 297 0
-292 -294 298 0
-296 299 0
-297 299 0
-296 -297 300 0
-289 301 0
-295 301 0
-289 -295 302 0
-290 303 0
-299 303 0
-290 -299 304 0
-302 305 0
-303 305 0
-302 -303 306 0
-305 0
91 92 93 94 95 96 0
-91 307 0
-92 307 0
-91 -92 308 0
-93 309 0
-94 309 0
-93 -94 310 0
-95 311 0
-96 311 0
-95 -96 312 0
-309 313 0
-311 313 0
-309 -311 314 0
-310 315 0
-312 315 0
-310 -312 316 0
-314 317 0
-315 317 0
-314 -315 318 0
-307 319 0
-313 319 0
-307 -313 320 0
-308 321 0
-317 321 0
-308 -317 322 0
-320 323 0
-321 323 0
-320 -321 324 0
-323 0
25 26 27 28 29 30 0
-25 325 0
-26 325 0
-25 -26 326 0
-27 327 0
-28 327 0
-27 -28 328 0
-29 329 0
-30 329 0
-29 -30 330 0
-327 331 0
-329 331 0
-327 -329 332 0
-328 333 0
-330 333 0
-328 -330 334 0
-332 335 0
-333 335 0
-332 -333 336 0
-325 337 0
-331 337 0
-325 -331 338 0
-326 339 0
-335 339 0
-326 -335 340 0
-338 341 0
-339 341 0
-338 -339 342 0
-341 0
61 62 63 64 65 66 0
-61 343 0
-62 343 0
-61 -62 344 0
-63 345 0
-64 345 0
-63 -64 346 0
-65 347 0
-66 347 0
-65 -66 348 0
-345 349 0
-347 349 0
-345 -347 350 0
-346 351 0
-348 351 0
-346 -348 352 0
-350 353 0
-351 353 0
-350 -351 354 0
-343 355 0
-349 355 0
-343 -349 356 0
-344 357 0
-353 357 0
-344 -353 358 0
-356 359 0
-357 359 0
-356 -357 360 0
-359 0
97 98 99 100 101 102 0
-97 361 0
-98 361 0
-97 -98 362 0
-99 363 0
-100 363 0
-99 -100 364 0
-101 365 0
-102 365 0
-101 -102 366 0
-363 367 0
-365 367 0
-363 -365 368 0
-364 369 0
-366 369 0
-364 -366 370 0
-368 371 0
-369 371 0
-368 -369 372 0
-361 373 0
-367 373 0
-361 -367 374 0
-362 375 0
-371 375 0
-362 -371 376 0
-374 377 0
-375 377 0
-374 -375 378 0
-377 0
31 32 33 34 35 36 0
-31 379 0
-32 379 0
-31 -32 380 0
-33 381 0
-34 381 0
-33 -34 382 0
-35 383 0
-36 383 0
-35 -36 384 0
-381 385 0
-383 385 0
-381 -383 386 0
-382 387 0
-384 387 0
-382 -384 388 0
-386 389 0
-387 389 0
-386 -387 390 0
-379 391 0
-385 391 0
-379 -385 392 0
-380 393 0
-389 393 0
-380 -389 394 0
-392 395 0
-393 395 0
-392 -393 396 0
-395 0
67 68 69 70 71 72 0
-67 397 0
-68 397 0
-67 -68 398 0
-69 399 0
-70 399 0
-69 -70 400 0
-71 401 0
-72 401 0
-71 -72 402 0
-399 403 0
-401 403 0
-399 -401 404 0
-400 405 0
-402 405 0
-400 -402 406 0
-404 407 0
-405 407 0
-404 -405 408 0
-397 409 0
-403 409 0
-397 -403 410 0
-398 411 0
-407 411 0
-398 -407 412 0
-410 413 0
-411 413 0
-410 -411 414 0
-413 0
103 104 105 106 107 108 0
-103 415 0
-104 415 0
-103 -104 416 0
-105 417 0
-106 417 0
-105 -106 418 0
-107 419 0
-108 419 0
-107 -108 420 0
-417 421 0
-419 421 0
-417 -419 422 0
-418 423 0
-420 423 0
-418 -420 424 0
-422 425 0
-423 425 0
-422 -423 426 0
-415 427 0
-421 427 0
-415 -421 428 0
-416 429 0
-425 429 0
-416 -425 430 0
-428 431 0
-429 431 0
-428 -429 432 0
-431 0
-1 -37 8 0
-1 -38 8 0
-1 -39 8 0
-1 -40 8 0
-1 -41 8 0
-1 -42 8 0
-2 -37 8 0
-2 -38 9 0
-2 -39 9 0
-2 -40 9 0
-2 -41 9 0
-2 -42 9 0
-3 -37 8 0
-3 -38 9 0
-3 -39 10 0
-3 -40 10 0
-3 -41 10 0
-3 -42 10 0
-4 -37 8 0
-4 -38 9 0
-4 -39 10 0
-4 -40 11 0
-4 -41 11 0
-4 -42 11 0
-5 -37 8 0
-5 -38 9 0
-5 -39 10 0
-5 -40 11 0
-5 -41 12 0
-5 -42 12 0
-6 -37 8 0
-6 -38 9 0
-6 -39 10 0
-6 -40 11 0
-6 -41 12 0
-6 -42 7 0
-37 -1 -73 44 0
-37 -2 -73 44 0
-37 -3 -73 44 0
-37 -4 -73 44 0
-37 -5 -73 44 0
-37 -6 -73 44 0
-37 -1 -74 44 0
-37 -2 -74 44 0
-37 -3 -74 44 0
-37 -4 -74 44 0
-37 -5 -74 44 0
-37 -6 -74 44 0
-37 -1 -75 44 0
-37 -2 -75 44 0
-37 -3 -75 44 0
-37 -4 -75 44 0
-37 -5 -75 44 0
-37 -6 -75 44 0
-37 -1 -76 44 0
-37 -2 -76 44 0
-37 -3 -76 44 0
-37 -4 -76 44 0
-37 -5 -76 44 0
-37 -6 -76 44 0
-37 -1 -77 44 0
-37 -2 -77 44 0
-37 -3 -77 44 0
-37 -4 -77 44 0
-37 -5 -77 44 0
-37 -6 -77 44 0
-37 -1 -78 44 0
-37 -2 -78 44 0
-37 -3 -78 44 0
-37 -4 -78 44 0
-37 -5 -78 44 0
-37 -6 -78 44 0
-38 -1 -73 44 0
-38 -2 -73 44 0
-38 -3 -73 44 0
-38 -4 -73 44 0
-38 -5 -73 44 0
-38 -6 -73 44 0
-38 -1 -74 44 0
-38 -2 -74 45 0
-38 -3 -74 45 0
-38 -4 -74 45 0
-38 -5 -74 45 0
-38 -6 -74 45 0
-38 -1 -75 44 0
-38 -2 -75 45 0
-38 -3 -75 45 0
-38 -4 -75 45 0
-38 -5 -75 45 0
-38 -6 -75 45 0
-38 -1 -76 44 0
-38 -2 -76 45 0
-38 -3 -76 45 0
-38 -4 -76 45 0
-38 -5 -76 45 0
-38 -6 -76 45 0
-38 -1 -77 44 0
-38 -2 -77 45 0
-38 -3 -77 45 0
-38 -4 -77 45 0
-38 -5 -77 45 0
-38 -6 -77 45 0
-38 -1 -78 44 0
-38 -2 -78 45 0
-38 -3 -78 45 0
-38 -4 -78 45 0
-38 -5 -78 45 0
-38 -6 -78 45 0
-39 -1 -73 44 0
-39 -2 -73 44 0
-39 -3 -73 44 0
-39 -4 -73 44 0
-39 -5 -73 44 0
-39 -6 -73 44 0
-39 -1 -74 44 0
-39 -2 -74 45 0
-39 -3 -74 45 0
-39 -4 -74 45 0
-39 -5 -74 45 0
-39 -6 -74 45 0
-39 -1 -75 44 0
-39 -2 -75 45 0
-39 -3 -75 46 0
-39 -4 -75 46 0
-39 -5 -75 46 0
-39 -6 -75 46 0
-39 -1 -76 44 0
-39 -2 -76 45 0
-39 -3 -76 46 0
-39 -4 -76 46 0
-39 -5 -76 46 0
-39 -6 -76 46 0
-39 -1 -77 44 0
-39 -2 -77 45 0
-39 -3 -77 46 0
-39 -4 -77 46 0
-39 -5 -77 46 0
-39 -6 -77 46 0
-39 -1 -78 44 0
-39 -2 -78 45 0
-39 -3 -78 46 0
-39 -4 -78 46 0
-39 -5 -78 46 0
-39 -6 -78 46 0
-40 -1 -73 44 0
-40 -2 -73 44 0
-40 -3 -73 44 0
-40 -4 -73 44 0
-40 -5 -73 44 0
-40 -6 -73 44 0
-40 -1 -74 44 0
-40 -2 -74 45 0
-40 -3 -74 45 0
-40 -4 -74 45 0
-40 -5 -74 45 0
-40 -6 -74 45 0
-40 -1 -75 44 0
-40 -2 -75 45 0
-40 -3 -75 46 0
-40 -4 -75 46 0
-40 -5 -75 46 0
-40 -6 -75 46 0
-40 -1 -76 44 0
-40 -2 -76 45 0
-40 -3 -76 46 0
-40 -4 -76 47 0
-40 -5 -76 47 0
-40 -6 -76 47 0
-40 -1 -77 44 0
-40 -2 -77 45 0
-40 -3 -77 46 0
-40 -4 -77 47 0
-40 -5 -77 47 0
-40 -6 -77 47 0
-40 -1 -78 44 0
-40 -2 -78 45 0
-40 -3 -78 46 0
-40 -4 -78 47 0
-40 -5 -78 47 0
-40 -6 -78 47 0
-41 -1 -73 44 0
-41 -2 -73 44 0
-41 -3 -73 44 0
-41 -4 -73 44 0
-41 -5 -73 44 0
-41 -6 -73 44 0
-41 -1 -74 44 0
-41 -2 -74 45 0
-41 -3 -74 45 0
-41 -4 -74 45 0
-41 -5 -74 45 0
-41 -6 -74 45 0
-41 -1 -75 44 0
-41 -2 -75 45 0
-41 -3 -75 46 0
-41 -4 -75 46 0
-41 -5 -75 46 0
-41 -6 -75 46 0
-41 -1 -76 44 0
-41 -2 -76 45 0
-41 -3 -76 46 0
-41 -4 -76 47 0
-41 -5 -76 47 0
-41 -6 -76 47 0
-41 -1 -77 44 0
-41 -2 -77 45 0
-41 -3 -77 46 0
-41 -4 -77 47 0
-41 -5 -77 48 0
-41 -6 -77 48 0
-41 -1 -78 44 0
-41 -2 -78 45 0
-41 -3 -78 46 0
-41 -4 -78 47 0
-41 -5 -78 48 0
-41 -6 -78 48 0
-42 -1 -73 44 0
-42 -2 -73 44 0
-42 -3 -73 44 0
-42 -4 -73 44 0
-42 -5 -73 44 0
-42 -6 -73 44 0
-42 -1 -74 44 0
-42 -2 -74 45 0
-42 -3 -74 45 0
-42 -4 -74 45 0
-42 -5 -74 45 0
-42 -6 -74 45 0
-42 -1 -75 44 0
-42 -2 -75 45 0
-42 -3 -75 46 0
-42 -4 -75 46 0
-42 -5 -75 46 0
-42 -6 -75 46 0
-42 -1 -76 44 0
-42 -2 -76 45 0
-42 -3 -76 46 0
-42 -4 -76 47 0
-42 -5 -76 47 0
-42 -6 -76 47 0
-42 -1 -77 44 0
-42 -2 -77 45 0
-42 -3 -77 46 0
-42 -4 -77 47 0
-42 -5 -77 48 0
-42 -6 -77 48 0
-42 -1 -78 44 0
-42 -2 -78 45 0
-42 -3 -78 46 0
-42 -4 -78 47 0
-42 -5 -78 48 0
-42 -6 -78 43 0
-73 -37 80 0
-73 -38 80 0
-73 -39 80 0
-73 -40 80 0
-73 -41 80 0
-73 -42 80 0
-74 -37 80 0
-74 -38 81 0
-74 -39 81 0
-74 -40 81 0
-74 -41 81 0
-74 -42 81 0
-75 -37 80 0
-75 -38 81 0
-75 -39 82 0
-75 -40 82 0
-75 -41 82 0
-75 -42 82 0
-76 -37 80 0
-76 -38 81 0
-76 -39 82 0
-76 -40 83 0
-76 -41 83 0
-76 -42 83 0
-77 -37 80 0
-77 -38 81 0
-77 -39 82 0
-77 -40 83 0
-77 -41 84 0
-77 -42 84 0
-78 -37 80 0
-78 -38 81 0
-78 -39 82 0
-78 -40 83 0
-78 -41 84 0
-78 -42 79 0
-7 -43 14 0
-7 -44 14 0
-7 -45 14 0
-7 -46 14 0
-7 -47 14 0
-7 -48 14 0
-8 -43 14 0
-8 -44 15 0
-8 -45 15 0
-8 -46 15 0
-8 -47 15 0
-8 -48 15 0
-9 -43 14 0
-9 -44 15 0
-9 -45 16 0
-9 -46 16 0
-9 -47 16 0
-9 -48 16 0
-10 -43 14 0
-10 -44 15 0
-10 -45 16 0
-10 -46 17 0
-10 -47 17 0
-10 -48 17 0
-11 -43 14 0
-11 -44 15 0
-11 -45 16 0
-11 -46 17 0
-11 -47 18 0
-11 -48 18 0
-12 -43 14 0
-12 -44 15 0
-12 -45 16 0
-12 -46 17 0
-12 -47 18 0
-12 -48 13 0
-43 -7 -79 50 0
-43 -8 -79 50 0
-43 -9 -79 50 0
-43 -10 -79 50 0
-43 -11 -79 50 0
-43 -12 -79 50 0
-43 -7 -80 50 0
-43 -8 -80 50 0
-43 -9 -80 50 0
-43 -10 -80 50 0
-43 -11 -80 50 0
-43 -12 -80 50 0
-43 -7 -81 50 0
-43 -8 -81 50 0
-43 -9 -81 50 0
-43 -10 -81 50 0
-43 -11 -81 50 0
-43 -12 -81 50 0
-43 -7 -82 50 0
-43 -8 -82 50 0
-43 -9 -82 50 0
-43 -10 -82 50 0
-43 -11 -82 50 0
-43 -12 -82 50 0
-43 -7 -83 50 0
-43 -8 -83 50 0
-43 -9 -83 50 0
-43 -10 -83 50 0
-43 -11 -83 50 0
-43 -12 -83 50 0
-43 -7 -84 50 0
-43 -8 -84 50 0
-43 -9 -84 50 0
-43 -10 -84 50 0
-43 -11 -84 50 0
-43 -12 -84 50 0
-44 -7 -79 50 0
-44 -8 -79 50 0
-44 -9 -79 50 0
-44 -10 -79 50 0
-44 -11 -79 50 0
-44 -12 -79 50 0
-44 -7 -80 50 0
-44 -8 -80 51 0
-44 -9 -80 51 0
-44 -10 -80 51 0
-44 -11 -80 51 0
-44 -12 -80 51 0
-44 -7 -81 50 0
-44 -8 -81 51 0
-44 -9 -81 51 0
-44 -10 -81 51 0
-44 -11 -81 51 0
-44 -12 -81 51 0
-44 -7 -82 50 0
-44 -8 -82 51 0
-44 -9 -82 51 0
-44 -10 -82 51 0
-44 -11 -82 51 0
-44 -12 -82 51 0
-44 -7 -83 50 0
-44 -8 -83 51 0
-44 -9 -83 51 0
-44 -10 -83 51 0
-44 -11 -83 51 0
-44 -12 -83 51 0
-44 -7 -84 50 0
-44 -8 -84 51 0
-44 -9 -84 51 0
-44 -10 -84 51 0
-44 -11 -84 51 0
-44 -12 -84 51 0
-45 -7 -79 50 0
-45 -8 -79 50 0
-45 -9 -79 50 0
-45 -10 -79 50 0
-45 -11 -79 50 0
-45 -12 -79 50 0
-45 -7 -80 50 0
-45 -8 -80 51 0
-45 -9 -80 51 0
-45 -10 -80 51 0
-45 -11 -80 51 0
-45 -12 -80 51 0
-45 -7 -81 50 0
-45 -8 -81 51 0
-45 -9 -81 52 0
-45 -10 -81 52 0
-45 -11 -81 52 0
-45 -12 -81 52 0
-45 -7 -82 50 0
-45 -8 -82 51 0
-45 -9 -82 52 0
-45 -10 -82 52 0
-45 -11 -82 52 0
-45 -12 -82 52 0
-45 -7 -83 50 0
-45 -8 -83 51 0
-45 -9 -83 52 0
-45 -10 -83 52 0
-45 -11 -83 52 0
-45 -12 -83 52 0
-45 -7 -84 50 0
-45 -8 -84 51 0
-45 -9 -84 52 0
-45 -10 -84 52 0
-45 -11 -84 52 0
-45 -12 -84 52 0
-46 -7 -79 50 0
-46 -8 -79 50 0
-46 -9 -79 50 0
-46 -10 -79 50 0
-46 -11 -79 50 0
-46 -12 -79 50 0
-46 -7 -80 50 0
-46 -8 -80 51 0
-46 -9 -80 51 0
-46 -10 -80 51 0
-46 -11 -80 51 0
-46 -12 -80 51 0
-46 -7 -81 50 0
-46 -8 -81 51 0
-46 -9 -81 52 0
-46 -10 -81 52 0
-46 -11 -81 52 0
-46 -12 -81 52 0
-46 -7 -82 50 0
-46 -8 -82 51 0
-46 -9 -82 52 0
-46 -10 -82 53 0
-46 -11 -82 53 0
-46 -12 -82 53 0
-46 -7 -83 50 0
-46 -8 -83 51 0
-46 -9 -83 52 0
-46 -10 -83 53 0
-46 -11 -83 53 0
-46 -12 -83 53 0
-46 -7 -84 50 0
-46 -8 -84 51 0
-46 -9 -84 52 0
-46 -10 -84 53 0
-46 -11 -84 53 0
-46 -12 -84 53 0
-47 -7 -79 50 0
-47 -8 -79 50 0
-47 -9 -79 50 0
-47 -10 -79 50 0
-47 -11 -79 50 0
-47 -12 -79 50 0
-47 -7 -80 50 0
-47 -8 -80 51 0
-47 -9 -80 51 0
-47 -10 -80 51 0
-47 -11 -80 51 0
-47 -12 -80 51 0
-47 -7 -81 50 0
-47 -8 -81 51 0
-47 -9 -81 52 0
-47 -10 -81 52 0
-47 -11 -81 52 0
-47 -12 -81 52 0
-47 -7 -82 50 0
-47 -8 -82 51 0
-47 -9 -82 52 0
-47 -10 -82 53 0
-47 -11 -82 53 0
-47 -12 -82 53 0
-47 -7 -83 50 0
-47 -8 -83 51 0
-47 -9 -83 52 0
-47 -10 -83 53 0
-47 -11 -83 54 0
-47 -12 -83 54 0
-47 -7 -84 50 0
-47 -8 -84 51 0
-47 -9 -84 52 0
-47 -10 -84 53 0
-47 -11 -84 54 0
-47 -12 -84 54 0
-48 -7 -79 50 0
-48 -8 -79 50 0
-48 -9 -79 50 0
-48 -10 -79 50 0
-48 -11 -79 50 0
-48 -12 -79 50 0
-48 -7 -80 50 0
-48 -8 -80 51 0
-48 -9 -80 51 0
-48 -10 -80 51 0
-48 -11 -80 51 0
-48 -12 -80 51 0
-48 -7 -81 50 0
-48 -8 -81 51 0
-48 -9 -81 52 0
-48 -10 -81 52 0
-48 -11 -81 52 0
-48 -12 -81 52 0
-48 -7 -82 50 0
-48 -8 -82 51 0
-48 -9 -82 52 0
-48 -10 -82 53 0
-48 -11 -82 53 0
-48 -12 -82 53 0
-48 -7 -83 50 0
-48 -8 -83 51 0
-48 -9 -83 52 0
-48 -10 -83 53 0
-48 -11 -83 54 0
-48 -12 -83 54 0
-48 -7 -84 50 0
-48 -8 -84 51 0
-48 -9 -84 52 0
-48 -10 -84 53 0
-48 -11 -84 54 0
-48 -12 -84 49 0
-79 -43 86 0
-79 -44 86 0
-79 -45 86 0
-79 -46 86 0
-79 -47 86 0
-79 -48 86 0
-80 -43 86 0
-80 -44 87 0
-80 -45 87 0
-80 -46 87 0
-80 -47 87 0
-80 -48 87 0
-81 -43 86 0
-81 -44 87 0
-81 -45 88 0
-81 -46 88 0
-81 -47 88 0
-81 -48 88 0
-82 -43 86 0
-82 -44 87 0
-82 -45 88 0
-82 -46 89 0
-82 -47 89 0
-82 -48 89 0
-83 -43 86 0
-83 -44 87 0
-83 -45 88 0
-83 -46 89 0
-83 -47 90 0
-83 -48 90 0
-84 -43 86 0
-84 -44 87 0
-84 -45 88 0
-84 -46 89 0
-84 -47 90 0
-84 -48 85 0
-13 -49 20 0
-13 -50 20 0
-13 -51 20 0
-13 -52 20 0
-13 -53 20 0
-13 -54 20 0
-14 -49 20 0
-14 -50 21 0
-14 -51 21 0
-14 -52 21 0
-14 -53 21 0
-14 -54 21 0
-15 -49 20 0
-15 -50 21 0
-15 -51 22 0
-15 -52 22 0
-15 -53 22 0
-15 -54 22 0
-16 -49 20 0
-16 -50 21 0
-16 -51 22 0
-16 -52 23 0
-16 -53 23 0
-16 -54 23 0
-17 -49 20 0
-17 -50 21 0
-17 -51 22 0
-17 -52 23 0
-17 -53 24 0
-17 -54 24 0
-18 -49 20 0
-18 -50 21 0
-18 -51 22 0
-18 -52 23 0
-18 -53 24 0
-18 -54 19 0
-49 -13 -85 56 0
-49 -14 -85 56 0
-49 -15 -85 56 0
-49 -16 -85 56 0
-49 -17 -85 56 0
-49 -18 -85 56 0
-49 -13 -86 56 0
-49 -14 -86 56 0
-49 -15 -86 56 0
-49 -16 -86 56 0
-49 -17 -86 56 0
-49 -18 -86 56 0
-49 -13 -87 56 0
-49 -14 -87 56 0
-49 -15 -87 56 0
-49 -16 -87 56 0
-49 -17 -87 56 0
-49 -18 -87 56 0
-49 -13 -88 56 0
-49 -14 -88 56 0
-49 -15 -88 56 0
-49 -16 -88 56 0
-49 -17 -88 56 0
-49 -18 -88 56 0
-49 -13 -89 56 0
-49 -14 -89 56 0
-49 -15 -89 56 0
-49 -16 -89 56 0
-49 -17 -89 56 0
-49 -18 -89 56 0
-49 -13 -90 56 0
-49 -14 -90 56 0
-49 -15 -90 56 0
-49 -16 -90 56 0
-49 -17 -90 56 0
-49 -18 -90 56 0
-50 -13 -85 56 0
-50 -14 -85 56 0
-50 -15 -85 56 0
-50 -16 -85 56 0
-50 -17 -85 56 0
-50 -18 -85 56 0
-50 -13 -86 56 0
-50 -14 -86 57 0
-50 -15 -86 57 0
-50 -16 -86 57 0
-50 -17 -86 57 0
-50 -18 -86 57 0
-50 -13 -87 56 0
-50 -14 -87 57 0
-50 -15 -87 57 0
-50 -16 -87 57 0
-50 -17 -87 57 0
-50 -18 -87 57 0
-50 -13 -88 56 0
-50 -14 -88 57 0
-50 -15 -88 57 0
-50 -16 -88 57 0
-50 -17 -88 57 0
-50 -18 -88 57 0
-50 -13 -89 56 0
-50 -14 -89 57 0
-50 -15 -89 57 0
-50 -16 -89 57 0
-50 -17 -89 57 0
-50 -18 -89 57 0
-50 -13 -90 56 0
-50 -14 -90 57 0
-50 -15 -90 57 0
-50 -16 -90 57 0
-50 -17 -90 57 0
-50 -18 -90 57 0
-51 -13 -85 56 0
-51 -14 -85 56 0
-51 -15 -85 56 0
-51 -16 -85 56 0
-51 -17 -85 56 0
-51 -18 -85 56 0
-51 -13 -86 56 0
-51 -14 -86 57 0
-51 -15 -86 57 0
-51 -16 -86 57 0
-51 -17 -86 57 0
-51 -18 -86 57 0
-51 -13 -87 56 0
-51 -14 -87 57 0
-51 -15 -87 58 0
-51 -16 -87 58 0
-51 -17 -87 58 0
-51 -18 -87 58 0
-51 -13 -88 56 0
-51 -14 -88 57 0
-51 -15 -88 58 0
-51 -16 -88 58 0
-51 -17 -88 58 0
-51 -18 -88 58 0
-51 -13 -89 56 0
-51 -14 -89 57 0
-51 -15 -89 58 0
-51 -16 -89 58 0
-51 -17 -89 58 0
-51 -18 -89 58 0
-51 -13 -90 56 0
-51 -14 -90 57 0
-51 -15 -90 58 0
-51 -16 -90 58 0
-51 -17 -90 58 0
-51 -18 -90 58 0
-52 -13 -85 56 0
-52 -14 -85 56 0
-52 -15 -85 56 0
-52 -16 -85 56 0
-52 -17 -85 56 0
-52 -18 -85 56 0
-52 -13 -86 56 0
-52 -14 -86 57 0
-52 -15 -86 57 0
-52 -16 -86 57 0
-52 -17 -86 57 0
-52 -18 -86 57 0
-52 -13 -87 56 0
-52 -14 -87 57 0
-52 -15 -87 58 0
-52 -16 -87 58 0
-52 -17 -87 58 0
-52 -18 -87 58 0
-52 -13 -88 56 0
-52 -14 -88 57 0
-52 -15 -88 58 0
-52 -16 -88 59 0
-52 -17 -88 59 0
-52 -18 -88 59 0
-52 -13 -89 56 0
-52 -14 -89 57 0
-52 -15 -89 58 0
-52 -16 -89 59 0
-52 -17 -89 59 0
-52 -18 -89 59 0
-52 -13 -90 56 0
-52 -14 -90 57 0
-52 -15 -90 58 0
-52 -16 -90 59 0
-52 -17 -90 59 0
-52 -18 -90 59 0
-53 -13 -85 56 0
-53 -14 -85 56 0
-53 -15 -85 56 0
-53 -16 -85 56 0
-53 -17 -85 56 0
-53 -18 -85 56 0
-53 -13 -86 56 0
-53 -14 -86 57 0
-53 -15 -86 57 0
-53 -16 -86 57 0
-53 -17 -86 57 0
-53 -18 -86 57 0
-53 -13 -87 56 0
-53 -14 -87 57 0
-53 -15 -87 58 0
-53 -16 -87 58 0
-53 -17 -87 58 0
-53 -18 -87 58 0
-53 -13 -88 56 0
-53 -14 -88 57 0
-53 -15 -88 58 0
-53 -16 -88 59 0
-53 -17 -88 59 0
-53 -18 -88 59 0
-53 -13 -89 56 0
-53 -14 -89 57 0
-53 -15 -89 58 0
-53 -16 -89 59 0
-53 -17 -89 60 0
-53 -18 -89 60 0
-53 -13 -90 56 0
-53 -14 -90 57 0
-53 -15 -90 58 0
-53 -16 -90 59 0
-53 -17 -90 60 0
-53 -18 -90 60 0
-54 -13 -85 56 0
-54 -14 -85 56 0
-54 -15 -85 56 0
-54 -16 -85 56 0
-54 -17 -85 56 0
-54 -18 -85 56 0
-54 -13 -86 56 0
-54 -14 -86 57 0
-54 -15 -86 57 0
-54 -16 -86 57 0
-54 -17 -86 57 0
-54 -18 -86 57 0
-54 -13 -87 56 0
-54 -14 -87 57 0
-54 -15 -87 58 0
-54 -16 -87 58 0
-54 -17 -87 58 0
-54 -18 -87 58 0
-54 -13 -88 56 0
-54 -14 -88 57 0
-54 -15 -88 58 0
-54 -16 -88 59 0
-54 -17 -88 59 0
-54 -18 -88 59 0
-54 -13 -89 56 0
-54 -14 -89 57 0
-54 -15 -89 58 0
-54 -16 -89 59 0
-54 -17 -89 60 0
-54 -18 -89 60 0
-54 -13 -90 56 0
-54 -14 -90 57 0
-54 -15 -90 58 0
-54 -16 -90 59 0
-54 -17 -90 60 0
-54 -18 -90 55 0
-85 -49 92 0
-85 -50 92 0
-85 -51 92 0
-85 -52 92 0
-85 -53 92 0
-85 -54 92 0
-86 -49 92 0
-86 -50 93 0
-86 -51 93 0
-86 -52 93 0
-86 -53 93 0
-86 -54 93 0
-87 -49 92 0
-87 -50 93 0
-87 -51 94 0
-87 -52 94 0
-87 -53 94 0
-87 -54 94 0
-88 -49 92 0
-88 -50 93 0
-88 -51 94 0
-88 -52 95 0
-88 -53 95 0
-88 -54 95 0
-89 -49 92 0
-89 -50 93 0
-89 -51 94 0
-89 -52 95 0
-89 -53 96 0
-89 -54 96 0
-90 -49 92 0
-90 -50 93 0
-90 -51 94 0
-90 -52 95 0
-90 -53 96 0
-90 -54 91 0
-19 -55 26 0
-19 -56 26 0
-19 -57 26 0
-19 -58 26 0
-19 -59 26 0
-19 -60 26 0
-20 -55 26 0
-20 -56 27 0
-20 -57 27 0
-20 -58 27 0
-20 -59 27 0
-20 -60 27 0
-21 -55 26 0
-21 -56 27 0
-21 -57 28 0
-21 -58 28 0
-21 -59 28 0
-21 -60 28 0
-22 -55 26 0
-22 -56 27 0
-22 -57 28 0
-22 -58 29 0
-22 -59 29 0
-22 -60 29 0
-23 -55 26 0
-23 -56 27 0
-23 -57 28 0
-23 -58 29 0
-23 -59 30 0
-23 -60 30 0
-24 -55 26 0
-24 -56 27 0
-24 -57 28 0
-24 -58 29 0
-24 -59 30 0
-24 -60 25 0
-55 -19 -91 62 0
-55 -20 -91 62 0
-55 -21 -91 62 0
-55 -22 -91 62 0
-55 -23 -91 62 0
-55 -24 -91 62 0
-55 -19 -92 62 0
-55 -20 -92 62 0
-55 -21 -92 62 0
-55 -22 -92 62 0
-55 -23 -92 62 0
-55 -24 -92 62 0
-55 -19 -93 62 0
-55 -20 -93 62 0
-55 -21 -93 62 0
-55 -22 -93 62 0
-55 -23 -93 62 0
-55 -24 -93 62 0
-55 -19 -94 62 0
-55 -20 -94 62 0
-55 -21 -94 62 0
-55 -22 -94 62 0
-55 -23 -94 62 0
-55 -24 -94 62 0
-55 -19 -95 62 0
-55 -20 -95 62 0
-55 -21 -95 62 0
-55 -22 -95 62 0
-55 -23 -95 62 0
-55 -24 -95 62 0
-55 -19 -96 62 0
-55 -20 -96 62 0
-55 -21 -96 62 0
-55 -22 -96 62 0
-55 -23 -96 62 0
-55 -24 -96 62 0
-56 -19 -91 62 0
-56 -20 -91 62 0
-56 -21 -91 62 0
-56 -22 -91 62 0
-56 -23 -91 62 0
-56 -24 -91 62 0
-56 -19 -92 62 0
-56 -20 -92 63 0
-56 -21 -92 63 0
-56 -22 -92 63 0
-56 -23 -92 63 0
-56 -24 -92 63 0
-56 -19 -93 62 0
-56 -20 -93 63 0
-56 -21 -93 63 0
-56 -22 -93 63 0
-56 -23 -93 63 0
-56 -24 -93 63 0
-56 -19 -94 62 0
-56 -20 -94 63 0
-56 -21 -94 63 0
-56 -22 -94 63 0
-56 -23 -94 63 0
-56 -24 -94 63 0
-56 -19 -95 62 0
-56 -20 -95 63 0
-56 -21 -95 63 0
-56 -22 -95 63 0
-56 -23 -95 63 0
-56 -24 -95 63 0
-56 -19 -96 62 0
-56 -20 -96 63 0
-56 -21 -96 63 0
-56 -22 -96 63 0
-56 -23 -96 63 0
-56 -24 -96 63 0
-57 -19 -91 62 0
-57 -20 -91 62 0
-57 -21 -91 62 0
-57 -22 -91 62 0
-57 -23 -91 62 0
-57 -24 -91 62 0
-57 -19 -92 62 0
-57 -20 -92 63 0
-57 -21 -92 63 0
-57 -22 -92 63 0
-57 -23 -92 63 0
-57 -24 -92 63 0
-57 -19 -93 62 0
-57 -20 -93 63 0
-57 -21 -93 64 0
-57 -22 -93 64 0
-57 -23 -93 64 0
-57 -24 -93 64 0
-57 -19 -94 62 0
-57 -20 -94 63 0
-57 -21 -94 64 0
-57 -22 -94 64 0
-57 -23 -94 64 0
-57 -24 -94 64 0
-57 -19 -95 62 0
-57 -20 -95 63 0
-57 -21 -95 64 0
-57 -22 -95 64 0
-57 -23 -95 64 0
-57 -24 -95 64 0
-57 -19 -96 62 0
-57 -20 -96 63 0
-57 -21 -96 64 0
-57 -22 -96 64 0
-57 -23 -96 64 0
-57 -24 -96 64 0
-58 -19 -91 62 0
-58 -20 -91 62 0
-58 -21 -91 62 0
-58 -22 -91 62 0
-58 -23 -91 62 0
-58 -24 -91 62 0
-58 -19 -92 62 0
-58 -20 -92 63 0
-58 -21 -92 63 0
-58 -22 -92 63 0
-58 -23 -92 63 0
-58 -24 -92 63 0
-58 -19 -93 62 0
-58 -20 -93 63 0
-58 -21 -93 64 0
-58 -22 -93 64 0
-58 -23 -93 64 0
-58 -24 -93 64 0
-58 -19 -94 62 0
-58 -20 -94 63 0
-58 -21 -94 64 0
-58 -22 -94 65 0
-58 -23 -94 65 0
-58 -24 -94 65 0
-58 -19 -95 62 0
-58 -20 -95 63 0
-58 -21 -95 64 0
-58 -22 -95 65 0
-58 -23 -95 65 0
-58 -24 -95 65 0
-58 -19 -96 62 0
-58 -20 -96 63 0
-58 -21 -96 64 0
-58 -22 -96 65 0
-58 -23 -96 65 0
-58 -24 -96 65 0
-59 -19 -91 62 0
-59 -20 -91 62 0
-59 -21 -91 62 0
-59 -22 -91 62 0
-59 -23 -91 62 0
-59 -24 -91 62 0
-59 -19 -92 62 0
-59 -20 -92 63 0
-59 -21 -92 63 0
-59 -22 -92 63 0
-59 -23 -92 63 0
-59 -24 -92 63 0
-59 -19 -93 62 0
-59 -20 -93 63 0
-59 -21 -93 64 0
-59 -22 -93 64 0
-59 -23 -93 64 0
-59 -24 -93 64 0
-59 -19 -94 62 0
-59 -20 -94 63 0
-59 -21 -94 64 0
-59 -22 -94 65 0
-59 -23 -94 65 0
-59 -24 -94 65 0
-59 -19 -95 62 0
-59 -20 -95 63 0
-59 -21 -95 64 0
-59 -22 -95 65 0
-59 -23 -95 66 0
-59 -24 -95 66 0
-59 -19 -96 62 0
-59 -20 -96 63 0
-59 -21 -96 64 0
-59 -22 -96 65 0
-59 -23 -96 66 0
-59 -24 -96 66 0
-60 -19 -91 62 0
-60 -20 -91 62 0
-60 -21 -91 62 0
-60 -22 -91 62 0
-60 -23 -91 62 0
-60 -24 -91 62 0
-60 -19 -92 62 0
-60 -20 -92 63 0
-60 -21 -92 63 0
-60 -22 -92 63 0
-60 -23 -92 63 0
-60 -24 -92 63 0
-60 -19 -93 62 0
-60 -20 -93 63 0
-60 -21 -93 64 0
-60 -22 -93 64 0
-60 -23 -93 64 0
-60 -24 -93 64 0
-60 -19 -94 62 0
-60 -20 -94 63 0
-60 -21 -94 64 0
-60 -22 -94 65 0
-60 -23 -94 65 0
-60 -24 -94 65 0
-60 -19 -95 62 0
-60 -20 -95 63 0
-60 -21 -95 64 0
-60 -22 -95 65 0
-60 -23 -95 66 0
-60 -24 -95 66 0
-60 -19 -96 62 0
-60 -20 -96 63 0
-60 -21 -96 64 0
-60 -22 -96 65 0
-60 -23 -96 66 0
-60 -24 -96 61 0
-91 -55 98 0
-91 -56 98 0
-91 -57 98 0
-91 -58 98 0
-91 -59 98 0
-91 -60 98 0
-92 -55 98 0
-92 -56 99 0
-92 -57 99 0
-92 -58 99 0
-92 -59 99 0
-92 -60 99 0
-93 -55 98 0
-93 -56 99 0
-93 -57 100 0
-93 -58 100 0
-93 -59 100 0
-93 -60 100 0
-94 -55 98 0
-94 -56 99 0
-94 -57 100 0
-94 -58 101 0
-94 -59 101 0
-94 -60 101 0
-95 -55 98 0
-95 -56 99 0
-95 -57 100 0
-95 -58 101 0
-95 -59 102 0
-95 -60 102 0
-96 -55 98 0
-96 -56 99 0
-96 -57 100 0
-96 -58 101 0
-96 -59 102 0
-96 -60 97 0
-25 -61 32 0
-25 -62 32 0
-25 -63 32 0
-25 -64 32 0
-25 -65 32 0
-25 -66 32 0
-26 -61 32 0
-26 -62 33 0
-26 -63 33 0
-26 -64 33 0
-26 -65 33 0
-26 -66 33 0
-27 -61 32 0
-27 -62 33 0
-27 -63 34 0
-27 -64 34 0
-27 -65 34 0
-27 -66 34 0
-28 -61 32 0
-28 -62 33 0
-28 -63 34 0
-28 -64 35 0
-28 -65 35 0
-28 -66 35 0
-29 -61 32 0
-29 -62 33 0
-29 -63 34 0
-29 -64 35 0
-29 -65 36 0
-29 -66 36 0
-30 -61 32 0
-30 -62 33 0
-30 -63 34 0
-30 -64 35 0
-30 -65 36 0
-30 -66 31 0
-61 -25 -97 68 0
-61 -26 -97 68 0
-61 -27 -97 68 0
-61 -28 -97 68 0
-61 -29 -97 68 0
-61 -30 -97 68 0
-61 -25 -98 68 0
-61 -26 -98 68 0
-61 -27 -98 68 0
-61 -28 -98 68 0
-61 -29 -98 68 0
-61 -30 -98 68 0
-61 -25 -99 68 0
-61 -26 -99 68 0
-61 -27 -99 68 0
-61 -28 -99 68 0
-61 -29 -99 68 0
-61 -30 -99 68 0
-61 -25 -100 68 0
-61 -26 -100 68 0
-61 -27 -100 68 0
-61 -28 -100 68 0
-61 -29 -100 68 0
-61 -30 -100 68 0
-61 -25 -101 68 0
-61 -26 -101 68 0
-61 -27 -101 68 0
-61 -28 -101 68 0
-61 -29 -101 68 0
-61 -30 -101 68 0
-61 -25 -102 68 0
-61 -26 -102 68 0
-61 -27 -102 68 0
-61 -28 -102 68 0
-61 -29 -102 68 0
-61 -30 -102 68 0
-62 -25 -97 68 0
-62 -26 -97 68 0
-62 -27 -97 68 0
-62 -28 -97 68 0
-62 -29 -97 68 0
-62 -30 -97 68 0
-62 -25 -98 68 0
-62 -26 -98 69 0
-62 -27 -98 69 0
-62 -28 -98 69 0
-62 -29 -98 69 0
-62 -30 -98 69 0
-62 -25 -99 68 0
-62 -26 -99 69 0
-62 -27 -99 69 0
-62 -28 -99 69 0
-62 -29 -99 69 0
-62 -30 -99 69 0
-62 -25 -100 68 0
-62 -26 -100 69 0
-62 -27 -100 69 0
-62 -28 -100 69 0
-62 -29 -100 69 0
-62 -30 -100 69 0
-62 -25 -101 68 0
-62 -26 -101 69 0
-62 -27 -101 69 0
-62 -28 -101 69 0
-62 -29 -101 69 0
-62 -30 -101 69 0
-62 -25 -102 68 0
-62 -26 -102 69 0
-62 -27 -102 69 0
-62 -28 -102 69 0
-62 -29 -102 69 0
-62 -30 -102 69 0
-63 -25 -97 68 0
-63 -26 -97 68 0
-63 -27 -97 68 0
-63 -28 -97 68 0
-63 -29 -97 68 0
-63 -30 -97 68 0
-63 -25 -98 68 0
-63 -26 -98 69 0
-63 -27 -98 69 0
-63 -28 -98 69 0
-63 -29 -98 69 0
-63 -30 -98 69 0
-63 -25 -99 68 0
-63 -26 -99 69 0
-63 -27 -99 70 0
-63 -28 -99 70 0
-63 -29 -99 70 0
-63 -30 -99 70 0
-63 -25 -100 68 0
-63 -26 -100 69 0
-63 -27 -100 70 0
-63 -28 -100 70 0
-63 -29 -100 70 0
-63 -30 -100 70 0
-63 -25 -101 68 0
-63 -26 -101 69 0
-63 -27 -101 70 0
-63 -28 -101 70 0
-63 -29 -101 70 0
-63 -30 -101 70 0
-63 -25 -102 68 0
-63 -26 -102 69 0
-63 -27 -102 70 0
-63 -28 -102 70 0
-63 -29 -102 70 0
-63 -30 -102 70 0
-64 -25 -97 68 0
-64 -26 -97 68 0
-64 -27 -97 68 0
-64 -28 -97 68 0
-64 -29 -97 68 0
-64 -30 -97 68 0
-64 -25 -98 68 0
-64 -26 -98 69 0
-64 -27 -98 69 0
-64 -28 -98 69 0
-64 -29 -98 69 0
-64 -30 -98 69 0
-64 -25 -99 68 0
-64 -26 -99 69 0
-64 -27 -99 70 0
-64 -28 -99 70 0
-64 -29 -99 70 0
-64 -30 -99 70 0
-64 -25 -100 68 0
-64 -26 -100 69 0
-64 -27 -100 70 0
-64 -28 -100 71 0
-64 -29 -100 71 0
-64 -30 -100 71 0
-64 -25 -101 68 0
-64 -26 -101 69 0
-64 -27 -101 70 0
-64 -28 -101 71 0
-64 -29 -101 71 0
-64 -30 -101 71 0
-64 -25 -102 68 0
-64 -26 -102 69 0
-64 -27 -102 70 0
-64 -28 -102 71 0
-64 -29 -102 71 0
-64 -30 -102 71 0
-65 -25 -97 68 0
-65 -26 -97 68 0
-65 -27 -97 68 0
-65 -28 -97 68 0
-65 -29 -97 68 0
-65 -30 -97 68 0
-65 -25 -98 68 0
-65 -26 -98 69 0
-65 -27 -98 69 0
-65 -28 -98 69 0
-65 -29 -98 69 0
-65 -30 -98 69 0
-65 -25 -99 68 0
-65 -26 -99 69 0
-65 -27 -99 70 0
-65 -28 -99 70 0
-65 -29 -99 70 0
-65 -30 -99 70 0
-65 -25 -100 68 0
-65 -26 -100 69 0
-65 -27 -100 70 0
-65 -28 -100 71 0
-65 -29 -100 71 0
-65 -30 -100 71 0
-65 -25 -101 68 0
-65 -26 -101 69 0
-65 -27 -101 70 0
-65 -28 -101 71 0
-65 -29 -101 72 0
-65 -30 -101 72 0
-65 -25 -102 68 0
-65 -26 -102 69 0
-65 -27 -102 70 0
-65 -28 -102 71 0
-65 -29 -102 72 0
-65 -30 -102 72 0
-66 -25 -97 68 0
-66 -26 -97 68 0
-66 -27 -97 68 0
-66 -28 -97 68 0
-66 -29 -97 68 0
-66 -30 -97 68 0
-66 -25 -98 68 0
-66 -26 -98 69 0
-66 -27 -98 69 0
-66 -28 -98 69 0
-66 -29 -98 69 0
-66 -30 -98 69 0
-66 -25 -99 68 0
-66 -26 -99 69 0
-66 -27 -99 70 0
-66 -28 -99 70 0
-66 -29 -99 70 0
-66 -30 -99 70 0
-66 -25 -100 68 0
-66 -26 -100 69 0
-66 -27 -100 70 0
-66 -28 -100 71 0
-66 -29 -100 71 0
-66 -30 -100 71 0
-66 -25 -101 68 0
-66 -26 -101 69 0
-66 -27 -101 70 0
-66 -28 -101 71 0
-66 -29 -101 72 0
-66 -30 -101 72 0
-66 -25 -102 68 0
-66 -26 -102 69 0
-66 -27 -102 70 0
-66 -28 -102 71 0
-66 -29 -102 72 0
-66 -30 -102 67 0
-97 -61 104 0
-97 -62 104 0
-97 -63 104 0
-97 -64 104 0
-97 -65 104 0
-97 -66 104 0
-98 -61 104 0
-98 -62 105 0
-98 -63 105 0
-98 -64 105 0
-98 -65 105 0
-98 -66 105 0
-99 -61 104 0
-99 -62 105 0
-99 -63 106 0
-99 -64 106 0
-99 -65 106 0
-99 -66 106 0
-100 -61 104 0
-100 -62 105 0
-100 -63 106 0
-100 -64 107 0
-100 -65 107 0
-100 -66 107 0
-101 -61 104 0
-101 -62 105 0
-101 -63 106 0
-101 -64 107 0
-101 -65 108 0
-101 -66 108 0
-102 -61 104 0
-102 -62 105 0
-102 -63 106 0
-102 -64 107 0
-102 -65 108 0
-102 -66 103 0
-31 -67 -103 0
-32 -68 -104 0
-33 -69 -105 0
-34 -70 -106 0
-35 -71 -107 0
-36 -72 -108 0
